NAME: burma10
TYPE: TSP
COMMENT: 10-State in Burma (Zaw Win)
DIMENSION: 10
EDGE_WEIGHT_TYPE: GEO
EDGE_WEIGHT_FORMAT: FUNCTION 
DISPLAY_DATA_TYPE: COORD_DISPLAY
NODE_COORD_SECTION
1 1 5
2 3 7
4 3 5
5 9 0
8 4 5
EOF